(declare-fun y () Int)
(declare-fun x () Int)

(assert (
and (and (and (and (
= (* y (* 29 (* 27 27))) x
) (
< (* (/ 81 (/ (/ 78 (* 66 62)) 40)) y) (/ (* 26 x) (- x x))
)) (and (
not (= (* (* (/ 31 99) (/ (/ y 53) (/ (/ 25 85) 21))) 16) (- x 1))
) (
= (* 63 (+ x 2)) (/ y (/ 23 58))
))) (and (and (
< (* (/ y (/ 48 52)) (/ 48 (* 24 89))) (+ (+ x x) x)
) (
not (= (/ (* 92 x) 60) (/ y (* 57 75)))
)) (and (
= (- x 67) (/ (* 49 y) (* 77 34))
) (
> 2 (/ (/ (/ (* 73 (/ y 76)) 82) (* 49 46)) (* 32 (/ 48 20)))
)))) (and (and (and (
>= 58 (/ (* y (* 52 46)) 71)
) (
> (+ x x) (/ (* 53 y) (/ 11 33))
)) (and (
<= (* x 23) (* (* 24 63) y)
) (
> (* 9 x) (/ (* 48 (* (/ y (* 14 34)) 76)) 11)
))) (and (and (
>= x (* (/ y 72) (* 15 (/ (* 95 61) 28)))
) (
not (= (/ (/ y (* 35 39)) (/ (* 19 (* 75 88)) 43)) 21)
)) (
>= (* (* (* 39 43) (/ 78 35)) y) (* 91 (* x (/ 76 76)))
)))
))